

[NpcPos]	Flags	Index	PosX	PosY	Type	IsRangeCheck
0	0	1	224	43	3	1
1	0	2	210	18	2	1
2	0	3	214	59	5	1
3	0	4	200	18	1	1
4	0	5	196	29	1	1
5	0	6	201	55	4	1
6	0	7	169	42	1	1
7	0	8	166	77	7	0
8	0	9	145	47	7	0
9	0	10	187	22	7	0
10	0	11	181	11	6	1
11	1	15	221	13	6	1
12	1	16	174	209	6	1
13	1	17	66	204	6	1
14	1	18	52	25	6	1
15	1	19	77	222	6	1
16	1	20	185	181	6	1
17	1	21	217	173	6	1
18	1	22	196	98	6	1
19	0	23	21	248	6	1
20	0	24	228	41	6	0
21	0	25	75	54	7	0
22	0	26	42	140	7	0
23	0	27	90	246	7	0
24	0	28	193	223	7	0
25	0	29	204	241	7	0
26	0	30	196	159	7	0
27	0	31	225	43	6	1
28	0	32	188	164	7	0
29	0	33	177	176	7	0
30	0	34	157	179	7	0
31	0	35	226	75	7	0
32	0	36	153	57	7	0
33	0	37	131	100	7	0
34	0	38	239	100	7	0
35	0	39	219	123	7	0
36	0	40	220	233	7	0
37	0	41	68	173	7	0
38	0	50	0	0	1	0
39	0	51	0	0	1	0
40	0	71	210	11	6	0
41	0	72	210	11	6	0
42	0	73	210	11	6	0
43	0	74	210	11	6	0
44	0	75	210	11	6	0
45	0	76	210	11	6	0
46	0	77	210	11	6	0

[WarpLst]	NpcsIdx	NSetIdx	TargetIdx	LV	Fee	Type
0	11	0	9	50	0	0
1	15	0	46	1	0	0
2	16	0	152	1	0	2
3	16	1	52	0	0	1
4	16	2	84	0	0	1
5	16	3	121	0	0	1
6	16	4	179	1	0	2
7	16	5	4190	0	0	1
8	16	6	4191	0	0	1
9	17	0	4132	0	0	1
10	18	0	240	125	0	0
11	18	1	170	1	0	2
12	18	3	194	1	0	2
13	18	5	181	1	0	2
14	18	7	210	0	0	1
15	19	0	41	0	0	1
16	19	1	75	0	0	1
17	19	2	135	0	0	1
18	19	3	4137	0	0	1
19	20	0	42	0	0	1
20	20	1	83	0	0	1
21	21	0	85	0	0	1
22	21	1	4128	0	0	1
23	22	0	59	0	0	1
24	22	1	144	0	0	1
25	22	2	201	0	0	1
26	22	3	4142	0	0	1
27	23	0	127	0	0	1
28	23	1	134	0	0	1
29	23	2	138	0	0	1
30	23	3	142	0	0	1
31	23	4	145	0	0	1
32	23	5	206	0	0	1
33	23	6	4145	0	0	1
34	23	7	4248	155	0	2
35	23	8	4249	155	0	2
36	23	9	4250	155	0	2
37	24	0	206	110	0	0
38	31	0	4170	0	0	1
39	31	1	4171	0	0	1
40	71	0	4235	0	0	1
41	72	0	4236	0	0	1
42	73	0	4237	0	0	1
43	74	0	4238	0	0	1
44	75	0	4239	0	0	1
45	76	0	4240	0	0	1
46	77	0	4241	0	0	1

[SkillLst]	NSetIdx	NpcsIdx	SkillIdx	SkillLv	SkillBook
0	0	2	1	1	1847
1	1	2	2	1	1848
2	2	2	209	1	1967
3	3	2	3	1	1849
4	4	2	4	1	1850
5	5	2	5	1	1851
6	6	2	10	1	1856
7	7	2	11	1	1857
8	8	2	16	1	1862
9	9	2	17	1	1863
10	10	2	203	1	1961
11	11	2	208	1	1966
12	12	2	12	1	1858
13	13	2	13	1	1859
14	14	2	18	1	1864
15	15	2	19	1	1865
16	16	2	22	1	1868
17	17	2	200	1	1958
18	18	2	23	1	1869
19	19	2	24	1	1870
20	20	2	25	1	1871
21	21	2	6	1	1852
22	22	2	7	1	1853
23	23	2	8	1	1854
24	24	2	9	1	1855
25	25	2	30	1	1876
26	26	2	31	1	1877
27	27	2	32	1	1878
28	28	2	33	1	1879
29	29	2	204	1	1962
30	30	2	14	1	1860
31	31	2	15	1	1861
32	32	2	20	1	1866
33	33	2	21	1	1867
34	34	2	26	1	1872
35	35	2	27	1	1873
36	36	2	28	1	1874
37	37	2	29	1	1875
38	38	2	68	1	1901
39	39	2	38	1	1884
40	40	2	201	1	1959
41	41	2	211	1	1969
42	42	2	39	1	1885
43	43	2	40	1	1886
44	44	2	41	1	1887
45	45	2	42	1	1888
46	46	2	216	1	1974
47	47	2	71	1	1903
48	48	2	43	1	1889
49	49	2	44	1	1890
50	50	2	45	1	1891
51	51	2	46	1	1892
52	52	2	70	1	1902
53	53	2	205	1	1963
54	54	2	469	1	2137
55	55	2	51	1	1893
56	56	2	52	1	1894
57	57	2	53	1	1895
58	58	2	54	1	1896
59	59	2	206	1	1964
60	60	2	212	1	1970
61	61	2	468	1	2136
62	62	2	34	1	1880
63	63	2	35	1	1881
64	64	2	36	1	1882
65	65	2	37	1	1883
66	66	2	202	1	1960
67	67	2	210	1	1968
68	68	2	55	1	1897
69	69	2	56	1	1898
70	70	2	57	1	1899
71	71	2	58	1	1900
72	72	2	213	1	1971
73	73	2	214	1	1972
74	74	2	217	1	1975
75	75	2	218	1	1976
76	76	2	219	1	1977
77	77	2	63	1	2311
78	78	2	64	1	2312
79	79	2	65	1	2313
80	80	2	66	1	2314
81	81	2	207	1	1965
82	82	2	215	1	1973
83	83	2	220	1	1978
84	84	2	221	1	1979
85	85	2	100	1	1904
86	86	2	128	1	1932
87	87	2	129	1	1933
88	88	2	148	1	1946
89	89	2	157	1	1955
90	90	2	230	1	1988
91	91	2	252	1	2010
92	92	2	424	1	2107
93	93	2	101	1	1905
94	94	2	102	1	1906
95	95	2	103	1	1907
96	96	2	425	1	2108
97	97	2	426	1	2109
98	98	2	427	1	2110
99	99	2	104	1	1908
100	100	2	105	1	1909
101	101	2	106	1	1910
102	102	2	428	1	2111
103	103	2	429	1	2112
104	104	2	430	1	2113
105	105	2	107	1	1911
106	106	2	130	1	1934
107	107	2	131	1	1935
108	108	2	149	1	1947
109	109	2	237	1	1995
110	110	2	238	1	1996
111	111	2	248	1	2006
112	112	2	256	1	2014
113	113	2	431	1	2114
114	114	2	108	1	1912
115	115	2	109	1	1913
116	116	2	110	1	1914
117	117	2	432	1	2115
118	118	2	433	1	2116
119	119	2	434	1	2117
120	120	2	253	1	2011
121	121	2	111	1	1915
122	122	2	112	1	1916
123	123	2	113	1	1917
124	124	2	435	1	2118
125	125	2	436	1	2119
126	126	2	437	1	2120
127	127	2	114	1	1918
128	128	2	132	1	1936
129	129	2	133	1	1937
130	130	2	150	1	1948
131	131	2	158	1	1956
132	132	2	231	1	1989
133	133	2	259	1	2017
134	134	2	438	1	2121
135	135	2	257	1	2015
136	136	2	115	1	1919
137	137	2	116	1	1920
138	138	2	117	1	1921
139	139	2	439	1	2122
140	140	2	440	1	2123
141	141	2	441	1	2124
142	142	2	239	1	1997
143	143	2	240	1	1998
144	144	2	118	1	1922
145	145	2	119	1	1923
146	146	2	120	1	1924
147	147	2	442	1	2125
148	148	2	443	1	2126
149	149	2	444	1	2127
150	150	2	255	1	2013
151	151	2	121	1	1925
152	152	2	134	1	1938
153	153	2	135	1	1939
154	154	2	151	1	1949
155	155	2	232	1	1990
156	156	2	241	1	1999
157	157	2	249	1	2007
158	158	2	445	1	2128
159	159	2	122	1	1926
160	160	2	123	1	1927
161	161	2	124	1	1928
162	162	2	258	1	2016
163	163	2	446	1	2129
164	164	2	447	1	2130
165	165	2	448	1	2131
166	166	2	125	1	1929
167	167	2	126	1	1930
168	168	2	127	1	1931
169	169	2	254	1	2012
170	170	2	449	1	2132
171	171	2	450	1	2133
172	172	2	451	1	2134
173	173	2	136	1	1940
174	174	2	137	1	1941
175	175	2	152	1	1950
176	176	2	159	1	1957
177	177	2	233	1	1991
178	178	2	243	1	2001
179	179	2	250	1	2008
180	180	2	260	1	2018
181	181	2	242	1	2000
182	182	2	244	1	2002
183	183	2	138	1	1942
184	184	2	153	1	1951
185	185	2	223	1	1981
186	186	2	234	1	1992
187	187	2	236	1	1994
188	188	2	245	1	2003
189	189	2	246	1	2004
190	190	2	261	1	2019
191	191	2	140	1	1944
192	192	2	154	1	1952
193	193	2	229	1	1987
194	194	2	272	1	2025
195	195	2	262	1	2020
196	196	2	139	1	1943
197	197	2	155	1	1953
198	198	2	235	1	1993
199	199	2	251	1	2009
200	200	2	273	1	2026
201	201	2	247	1	2005
202	202	2	263	1	2021
203	203	2	141	1	1945
204	204	2	156	1	1954
205	205	2	224	1	1982
206	206	2	228	1	1986
207	207	2	167	1	2315
208	208	2	168	1	2316
209	209	2	225	1	1983
210	210	2	226	1	1984
211	211	2	227	1	1985
212	212	2	269	1	2022
213	213	2	270	1	2023
214	214	2	271	1	2024
215	215	2	274	1	2027
216	216	2	300	1	2028
217	217	2	301	1	2038
218	218	2	300	2	2029
219	219	2	301	2	2039
220	220	2	305	1	2072
221	221	2	306	1	2081
222	222	2	300	3	2030
223	223	2	301	3	2040
224	224	2	302	1	2048
225	225	2	303	1	2056
226	226	2	304	1	2064
227	227	2	305	2	2073
228	228	2	306	2	2082
229	229	2	300	4	2031
230	230	2	301	4	2041
231	231	2	302	2	2049
232	232	2	303	2	2057
233	233	2	304	2	2065
234	234	2	305	3	2074
235	235	2	306	3	2083
236	236	2	300	5	2032
237	237	2	301	5	2042
238	238	2	302	3	2050
239	239	2	303	3	2058
240	240	2	304	3	2066
241	241	2	305	4	2075
242	242	2	306	4	2084
243	243	2	300	6	2033
244	244	2	301	6	2043
245	245	2	302	4	2051
246	246	2	303	4	2059
247	247	2	304	4	2067
248	248	2	305	5	2076
249	249	2	306	5	2085
250	250	2	300	7	2034
251	251	2	301	7	2044
252	252	2	302	5	2052
253	253	2	303	5	2060
254	254	2	304	5	2068
255	255	2	305	6	2077
256	256	2	306	6	2086
257	257	2	300	8	2035
258	258	2	301	8	2045
259	259	2	302	6	2053
260	260	2	303	6	2061
261	261	2	304	6	2069
262	262	2	305	7	2078
263	263	2	306	7	2087
264	264	2	310	1	2090
265	265	2	311	1	2093
266	266	2	312	1	2096
267	267	2	313	1	2099
268	268	2	314	1	2102
269	269	2	300	9	2036
270	270	2	301	9	2046
271	271	2	302	7	2054
272	272	2	303	7	2062
273	273	2	304	7	2070
274	274	2	305	8	2079
275	275	2	306	8	2088
276	276	2	310	2	2091
277	277	2	311	2	2094
278	278	2	312	2	2097
279	279	2	313	2	2100
280	280	2	314	2	2103
281	281	2	300	10	2037
282	282	2	301	10	2047
283	283	2	302	8	2055
284	284	2	303	8	2063
285	285	2	304	8	2071
286	286	2	305	9	2080
287	287	2	306	9	2089
288	288	2	310	3	2092
289	289	2	311	3	2095
290	290	2	312	3	2098
291	291	2	313	3	2101
292	292	2	314	3	2104
